 $CONTRL SCFTYP=RHF DFTTYP=B3LYP RUNTYP=optimize MULT=1 $END
 $SYSTEM TIMLIM=5000 MEMORY=2000000 $END
 $BASIS  GBASIS=N31 NGAUSS=6 ndfunc=1 npfunc=1 $END
 $STATPT NSTEP=150 HSSEND=.T. $END
 $FORCE NVIB=2 RDHESS=.f. TEMP(1)=0.001,298.15,1200,
 1300,1400,1500,1600 $END
 $SCF DIIS=.T. SOSCF=.F. $END
 $DATA
  C3H6 Optimization
 C1
C1
C     6.0    -4.41781     1.21994     0.03489
C     6.0    -3.10640     2.06779     0.05672
H     1.0    -4.37305     0.26139    -0.46111
H     1.0    -5.23687     1.77369    -0.44071
H     1.0    -4.74542     1.06044     1.07817
C     6.0    -1.76083     1.32210    -0.15367
H     1.0    -1.61186     0.71563     0.75672
H     1.0    -0.91836     2.04450    -0.12925
H     1.0    -1.60657     0.66266    -0.99214
F     9.0    -3.34292     3.16327    -0.72986
H     1.0    -2.91872     2.48269     0.98024
 $END
