 $CONTRL SCFTYP=rhf DFTTYP=B3LYP runtyp=irc UNITS=ANGS $END
 $SYSTEM TIMLIM=5000 MEMORY=2000000 $END               
 $BASIS  GBASIS=N31 NGAUSS=6 ndfunc=1 npfunc=1 $END 
 $IRC PACE=GS2 MXOPT=100 SADDLE=.true. FORWRD=.TRUE. NPOINT=150 $END      ! FORWRD - direction to proceed away from TS
 $DATA
  TS CH3-CH2-CH2F  IRC backward                                           
 C1                                                                    
C 6       -0.859305534      0.296470287      0.028044157
C 6       -1.076397141      1.316906538     -0.810126975
C 6        0.470597619     -0.350516730      0.283608136
H 1       -1.700230321     -0.097165219      0.599962646
H 1       -2.064934981      1.746169279     -0.943634189
H 1       -0.273936392      1.738620011     -1.411247125
H 1        0.410075102     -1.437334034      0.159292016
H 1        1.241384578      0.034272011     -0.390255482
H 1        0.785781960     -0.150243674      1.313308733
H 1       -0.372227782      2.038732485      1.255442918
F 9        0.054919989      2.205463396      2.070410370
$END    
 $HESS                                                                    ! Paste HESS of saddle point (last in *.dat)
ENERGY IS     -218.3547386870 E(NUC) IS      116.9191400433
 1  1 5.64470999E-01-5.58982235E-02-5.26122328E-02-1.22088345E-01 5.79151304E-02
 1  2-3.27090169E-02-2.00411536E-01 4.92969543E-02-1.04288500E-02-2.18600098E-01
 1  3-7.12901372E-02 1.09661784E-01-8.52675930E-04 2.43600928E-02-2.01387620E-02
 1  4 6.16586538E-03-1.94784685E-02 1.69341240E-02 3.14857619E-03 6.02177982E-04
 1  5-9.59124838E-04-2.27458195E-02 1.02442020E-02-5.67180654E-03-8.93921061E-03
 1  6 5.33659185E-03-3.73824375E-03 2.11102619E-03-1.16231251E-03 3.14496783E-03
 1  7-2.25844907E-03 7.10079935E-05-3.48442004E-03
 2  1-5.58982235E-02 5.53061888E-01-3.36653270E-01 6.04778917E-02-3.38913849E-01
 2  2 2.43983372E-01 5.19435017E-02-1.04407491E-01 1.44571030E-02-7.43875366E-02
 2  3-8.56011891E-02 5.82662916E-02-6.58557033E-04-6.85229586E-03 7.82102673E-03
 2  4 2.55701813E-03-5.91080959E-03 7.91663620E-03 3.27085181E-02-1.34867899E-02
 2  5 9.02628598E-03-1.19166719E-02 5.73172757E-03-2.82373296E-03-3.14710172E-03
 2  6 6.85008643E-04 3.19585398E-03-2.69812210E-03-3.32641651E-03-5.80103799E-03
 2  7 1.02030059E-03-9.80168614E-04 6.11134321E-04
 3  1-5.26122328E-02-3.36653270E-01 4.68759243E-01-3.31573579E-02 2.43377809E-01
 3  2-2.52004714E-01-1.62134898E-02 1.51738634E-02-8.29140270E-02 1.11993908E-01
 3  3 5.60626619E-02-1.22857994E-01 1.29948340E-03 2.02674749E-03 1.15488881E-04
 3  4-2.65780105E-03 1.48654012E-02-7.39075463E-03 3.16085939E-03 9.40244494E-04
 3  5-8.42253258E-04 1.93644655E-02-1.04320083E-02 4.11049251E-03-3.02311868E-02
 3  6 1.68492788E-02-3.99413924E-03 3.46327046E-03 6.66465593E-04 6.18119459E-03
 3  7-4.41100461E-03-2.87727666E-03-9.16332409E-03
 4  1-1.22088345E-01 6.04778917E-02-3.31573579E-02 6.34506192E-01-9.79788051E-02
 4  2-5.11562528E-02-3.58155164E-03 2.60852902E-02-2.03127721E-02 6.54002958E-03
 4  3-2.04297354E-02 1.74388073E-02-2.96807154E-01 1.00844229E-01-2.43274469E-02
 4  4-2.13127724E-01-7.31653876E-02 1.15447926E-01-3.83902167E-03 2.18965388E-03
 4  5-1.14493071E-03 2.02224917E-03 5.19325373E-04-1.04008612E-03-2.70996600E-03
 4  6 1.97611939E-03-8.20406622E-04-1.37204649E-03-1.10528283E-04-1.21128568E-04
 4  7 4.55907567E-04-4.09734822E-04-8.09118035E-04
 5  1 5.79151304E-02-3.38913849E-01 2.43377809E-01-9.79788051E-02 5.31051413E-01
 5  2-3.54950722E-01 8.46001144E-03-9.91974369E-03 1.35924743E-02 3.63140163E-03
 5  3-5.98231659E-03 8.85268995E-03 1.04532655E-01-8.84336042E-02 2.30847141E-02
 5  4-7.63760574E-02-8.69140721E-02 6.84534365E-02 9.17851233E-04 5.02066352E-04
 5  5 2.28434072E-05-1.51300555E-03 5.23459448E-04-8.88588205E-04 7.29807065E-04
 5  6-8.26950540E-04-1.23878182E-03 4.20692111E-03-2.42720452E-05 7.83445017E-03
 5  7-4.52626970E-03-1.06427074E-03-8.14105127E-03
 6  1-3.27090169E-02 2.43983372E-01-2.52004714E-01-5.11562528E-02-3.54950722E-01
 6  2 4.38745965E-01-4.25677696E-03 8.29563532E-03 6.93208753E-04-3.50326836E-03
 6  3 1.56115559E-02-7.08953595E-03-2.67552742E-02 2.42486074E-02-4.90942860E-02
 6  4 1.17437843E-01 6.75943572E-02-1.29613132E-01 2.60943724E-04-1.44573448E-03
 6  5 2.12271034E-04 6.61767586E-04-1.17598235E-03 4.85388620E-04 1.21288096E-03
 6  6-6.11922397E-04 9.82071181E-04-3.15772363E-04-1.33334614E-03-2.64712499E-03
 6  7-8.77126631E-04-2.16154264E-04-6.67660168E-04
 7  1-2.00411536E-01 5.19435017E-02-1.62134898E-02-3.58155164E-03 8.46001144E-03
 7  2-4.25677696E-03 5.14516364E-01 3.13142863E-02-2.90891915E-02-1.82081105E-02
 7  3 1.13618824E-02-4.73200396E-03 1.95462722E-03 2.36155163E-04 3.30333745E-03
 7  4 1.14623217E-03-2.90450310E-03-2.28239758E-04-4.93895961E-02-1.88482131E-02
 7  5 1.10169289E-03-1.76729167E-01-6.71175040E-02 1.17101976E-01-6.90877186E-02
 7  6-1.63313175E-02-6.71815327E-02 2.85176039E-04 1.67437505E-03 9.33166212E-04
 7  7-4.95739408E-04 2.11468482E-04-7.40576637E-04
 8  1 4.92969543E-02-1.04407491E-01 1.51738634E-02 2.60852902E-02-9.91974369E-03
 8  2 8.29563532E-03 3.13142863E-02 5.50865430E-01-7.84237843E-03-1.04015669E-02
 8  3 6.82654132E-03-1.53988665E-03 1.69341709E-03 4.10620676E-03 8.57493149E-03
 8  4-2.97453332E-04-2.43137820E-03-4.95412427E-03-1.73605383E-02-3.05397169E-01
 8  5-2.99863717E-02-6.53492416E-02-8.47832502E-02 5.96114843E-02-1.61811150E-02
 8  6-5.19014527E-02-4.70510022E-02 9.17377804E-05-1.48977851E-03-7.89350426E-04
 8  7 1.10997001E-03-1.46854358E-03 5.05283568E-04
 9  1-1.04288500E-02 1.44571030E-02-8.29140270E-02-2.03127721E-02 1.35924743E-02
 9  2 6.93208753E-04-2.90891915E-02-7.84237843E-03 5.57582910E-01 1.54398107E-02
 9  3-7.02958410E-03 5.43049500E-03 1.63293787E-03 8.31716269E-03 5.61271392E-03
 9  4-2.47501583E-03-4.31623192E-03-3.51960981E-03 5.16666937E-04-3.09217160E-02
 9  5-4.87784898E-02 1.14612795E-01 6.01939318E-02-1.52126956E-01-6.96656159E-02
 9  6-4.68337727E-02-2.82350472E-01 3.15726397E-04-3.58679402E-04-2.19624705E-04
 9  7-5.48038355E-04 7.43505803E-04 5.89019058E-04
10  1-2.18600098E-01-7.43875366E-02 1.11993908E-01 6.54002958E-03 3.63140163E-03
10  2-3.50326836E-03-1.82081105E-02-1.04015669E-02 1.54398107E-02 2.30363904E-01
10  3 7.65833247E-02-1.21531645E-01 9.46344182E-04-1.10657824E-03-1.19838124E-03
10  4 1.51002922E-03 2.57481946E-03 3.41060840E-04 9.24178998E-04 4.57521747E-04
10  5 9.90353599E-05-3.90636091E-03 2.97041699E-03-1.63476632E-03 5.51800244E-04
10  6-2.24256874E-04-4.01202345E-04-6.47195267E-04-3.98116421E-04 5.96481741E-04
10  7 5.25993127E-04 3.01845723E-04-1.99229117E-04
11  1-7.12901372E-02-8.56011891E-02 5.60626619E-02-2.04297354E-02-5.98231659E-03
11  2 1.56115559E-02 1.13618824E-02 6.82654132E-03-7.02958410E-03 7.65833247E-02
11  3 8.45316192E-02-7.04355258E-02-8.53985388E-04-2.58497069E-03-4.18329297E-03
11  4 2.71017935E-03 2.02704887E-03 8.07899211E-03-1.09645602E-03 7.69653922E-04
11  5-3.81656485E-04 3.38459042E-03-1.42103112E-04 1.17684019E-03-3.01562350E-06
11  6 2.78535771E-04 3.20167733E-04-8.10429215E-04-4.08470839E-04 9.81765953E-04
11  7 4.43295463E-04 2.86705382E-04-2.00623902E-04
12  1 1.09661784E-01 5.82662916E-02-1.22857994E-01 1.74388073E-02 8.85268995E-03
12  2-7.08953595E-03-4.73200396E-03-1.53988665E-03 5.43049500E-03-1.21531645E-01
12  3-7.04355258E-02 1.21368286E-01-1.31585393E-03-4.17697863E-03-3.51330235E-03
12  4 6.53259370E-04 8.17440934E-03 4.78495842E-03 9.89293504E-05 2.30764446E-04
12  5 2.09351187E-04-1.21518550E-03 1.21252746E-03 1.06910581E-03 1.04229254E-03
12  6-4.24783710E-04 2.48025393E-04-3.43573452E-04-4.10498211E-04 8.29264147E-05
12  7 2.43813496E-04 2.50182645E-04 2.68241172E-04
13  1-8.52675930E-04-6.58557033E-04 1.29948340E-03-2.96807154E-01 1.04532655E-01
13  2-2.67552742E-02 1.95462722E-03 1.69341709E-03 1.63293787E-03 9.46344182E-04
13  3-8.53985388E-04-1.31585393E-03 3.09031902E-01-1.13938519E-01 2.99185042E-02
13  4-1.41466881E-02 8.91815577E-03-4.13343923E-03-4.75907980E-04 3.11973299E-04
13  5-5.15804607E-04 4.97894043E-04-2.22004842E-04-3.22256502E-05 3.33897688E-04
13  6-2.61404424E-05-6.82501356E-05-7.18687339E-04 4.54285505E-04 1.37863220E-04
13  7 2.36777382E-04-2.10588378E-04-1.66397072E-04
14  1 2.43600928E-02-6.85229586E-03 2.02674749E-03 1.00844229E-01-8.84336042E-02
14  2 2.42486074E-02 2.36155163E-04 4.10620676E-03 8.31716269E-03-1.10657824E-03
14  3-2.58497069E-03-4.17697863E-03-1.13938519E-01 8.83539706E-02-2.88903898E-02
14  4-1.09427064E-02 6.26933680E-03-1.37718524E-03-6.89442729E-04 2.77216079E-04
14  5-3.03794447E-04-1.90998170E-04 8.02382260E-06-1.88177610E-04 1.80150796E-03
14  6-1.46932991E-03 4.71185903E-04-5.00634816E-04 4.06250432E-04-2.11542874E-04
14  7 1.27531990E-04-8.04714616E-05 8.42303486E-05
15  1-2.01387620E-02 7.82102673E-03 1.15488881E-04-2.43274469E-02 2.30847141E-02
15  2-4.90942860E-02 3.30333745E-03 8.57493149E-03 5.61271392E-03-1.19838124E-03
15  3-4.18329297E-03-3.51330235E-03 2.99185042E-02-2.88903898E-02 4.30369322E-02
15  4 1.44884812E-02-6.65094478E-03 4.31487207E-03-2.18320507E-03 9.68924892E-04
15  5-7.46011833E-04-3.34994253E-04-1.57765664E-04 8.68413073E-05 1.10134136E-03
15  6-1.04479436E-03 2.66601367E-04-8.88848457E-04 8.38175695E-04 8.30355165E-05
15  7 2.59850482E-04-3.60476514E-04-1.62270510E-04
16  1 6.16586538E-03 2.55701813E-03-2.65780105E-03-2.13127724E-01-7.63760574E-02
16  2 1.17437843E-01 1.14623217E-03-2.97453332E-04-2.47501583E-03 1.51002922E-03
16  3 2.71017935E-03 6.53259370E-04-1.41466881E-02-1.09427064E-02 1.44884812E-02
16  4 2.18114018E-01 8.27482977E-02-1.27996298E-01 1.12243950E-04-1.55956775E-04
16  5 1.47738321E-04 4.20172938E-04-4.41364482E-04 4.37024780E-04-1.08376372E-04
16  6 2.16452948E-04-1.36032404E-04-1.80808060E-04-1.02286230E-04 1.64146584E-05
16  7 9.56486028E-05 8.46493232E-05 8.68012630E-05
17  1-1.94784685E-02-5.91080959E-03 1.48654012E-02-7.31653876E-02-8.69140721E-02
17  2 6.75943572E-02-2.90450310E-03-2.43137820E-03-4.31623192E-03 2.57481946E-03
17  3 2.02704887E-03 8.17440934E-03 8.91815577E-03 6.26933680E-03-6.65094478E-03
17  4 8.27482977E-02 8.61348737E-02-7.90295669E-02 5.48452553E-04-3.05681285E-04
17  5 3.20534869E-04 1.08107779E-03 1.32199626E-04-2.70833954E-04-5.45892637E-04
17  6 7.20709472E-04-4.80204420E-04 7.68506200E-05 3.90493164E-04-5.96046198E-04
17  7 1.45891147E-04-1.11431515E-04 3.89831936E-04
18  1 1.69341240E-02 7.91663620E-03-7.39075463E-03 1.15447926E-01 6.84534365E-02
18  2-1.29613132E-01-2.28239758E-04-4.95412427E-03-3.51960981E-03 3.41060840E-04
18  3 8.07899211E-03 4.78495842E-03-4.13343923E-03-1.37718524E-03 4.31487207E-03
18  4-1.27996298E-01-7.90295669E-02 1.31318812E-01 3.94393663E-04-6.45333900E-04
18  5 6.29005946E-04-8.37544704E-04 3.23871393E-04 1.91324310E-04-6.76844913E-04
18  6 7.13268902E-04-2.94278021E-04 1.10215426E-03 8.18778877E-04-8.75879341E-04
18  7-3.46722330E-04-2.99431729E-04 4.53611623E-04
19  1 3.14857619E-03 3.27085181E-02 3.16085939E-03-3.83902167E-03 9.17851233E-04
19  2 2.60943724E-04-4.93895961E-02-1.73605383E-02 5.16666937E-04 9.24178998E-04
19  3-1.09645602E-03 9.89293504E-05-4.75907980E-04-6.89442729E-04-2.18320507E-03
19  4 1.12243950E-04 5.48452553E-04 3.94393663E-04 5.17890393E-02 1.66959518E-02
19  5 2.72717772E-03-9.36823094E-04-2.19836181E-02-4.47413274E-03-1.19097768E-03
19  6-9.47883384E-03 6.72934229E-05-7.48319046E-04-4.00179287E-05-7.84492113E-04
19  7 6.06456546E-04-2.22225796E-04 2.16028645E-04
20  1 6.02177982E-04-1.34867899E-02 9.40244494E-04 2.18965388E-03 5.02066352E-04
20  2-1.44573448E-03-1.88482131E-02-3.05397169E-01-3.09217160E-02 4.57521747E-04
20  3 7.69653922E-04 2.30764446E-04 3.11973299E-04 2.77216079E-04 9.68924892E-04
20  4-1.55956775E-04-3.05681285E-04-6.45333900E-04 1.66959518E-02 3.32181157E-01
20  5 3.30126872E-02-3.95177771E-04-9.24221877E-03-1.73771250E-03-8.21212936E-04
20  6-5.42139118E-03-5.51562322E-04-6.99651138E-05 3.35834921E-04 3.19620408E-04
20  7 3.26344992E-05-2.14062547E-04-1.68217717E-04
21  1-9.59124838E-04 9.02628598E-03-8.42253258E-04-1.14493071E-03 2.28434072E-05
21  2 2.12271034E-04 1.10169289E-03-2.99863717E-02-4.87784898E-02 9.90353599E-05
21  3-3.81656485E-04 2.09351187E-04-5.15804607E-04-3.03794447E-04-7.46011833E-04
21  4 1.47738321E-04 3.20534869E-04 6.29005946E-04 2.72717772E-03 3.30126872E-02
21  5 4.94735023E-02-3.07157518E-05 2.08625805E-02 2.63062901E-03-1.48971562E-03
21  6-3.17219893E-02-2.15131127E-03-4.56898303E-04 2.03595702E-04-3.87686292E-04
21  7 5.21499734E-04-1.05530398E-03-2.48708029E-04
22  1-2.27458195E-02-1.19166719E-02 1.93644655E-02 2.02224917E-03-1.51300555E-03
22  2 6.61767586E-04-1.76729167E-01-6.53492416E-02 1.14612795E-01-3.90636091E-03
22  3 3.38459042E-03-1.21518550E-03 4.97894043E-04-1.90998170E-04-3.34994253E-04
22  4 4.20172938E-04 1.08107779E-03-8.37544704E-04-9.36823094E-04-3.95177771E-04
22  5-3.07157518E-05 1.94118105E-01 7.06508615E-02-1.26483333E-01 7.46533146E-03
22  6 4.33256268E-03-5.67185339E-03-4.93820722E-04-4.98359016E-05-5.07048849E-05
22  7 2.88534277E-04-3.29187715E-05-1.34302684E-05
23  1 1.02442020E-02 5.73172757E-03-1.04320083E-02 5.19325373E-04 5.23459448E-04
23  2-1.17598235E-03-6.71175040E-02-8.47832502E-02 6.01939318E-02 2.97041699E-03
23  3-1.42103112E-04 1.21252746E-03-2.22004842E-04 8.02382260E-06-1.57765664E-04
23  4-4.41364482E-04 1.32199626E-04 3.23871393E-04-2.19836181E-02-9.24221877E-03
23  5 2.08625805E-02 7.06508615E-02 8.59404254E-02-6.67870948E-02 5.28884440E-03
23  6 1.77583476E-03-4.05592995E-03 3.11468857E-04 3.78910319E-05-9.50144767E-05
23  7-2.21428175E-04 1.91811171E-05 1.11581833E-04
24  1-5.67180654E-03-2.82373296E-03 4.11049251E-03-1.04008612E-03-8.88588205E-04
24  2 4.85388620E-04 1.17101976E-01 5.96114843E-02-1.52126956E-01-1.63476632E-03
24  3 1.17684019E-03 1.06910581E-03-3.22256502E-05-1.88177610E-04 8.68413073E-05
24  4 4.37024780E-04-2.70833954E-04 1.91324310E-04-4.47413274E-03-1.73771250E-03
24  5 2.63062901E-03-1.26483333E-01-6.67870948E-02 1.60282565E-01 2.17422766E-02
24  6 1.20726194E-02-1.67581362E-02 4.37158656E-04 2.46277195E-04-1.49349975E-04
24  7-3.81219667E-04-4.12131391E-04 1.78426121E-04
25  1-8.93921061E-03-3.14710172E-03-3.02311868E-02-2.70996600E-03 7.29807065E-04
25  2 1.21288096E-03-6.90877186E-02-1.61811150E-02-6.96656159E-02 5.51800244E-04
25  3-3.01562350E-06 1.04229254E-03 3.33897688E-04 1.80150796E-03 1.10134136E-03
25  4-1.08376372E-04-5.45892637E-04-6.76844913E-04-1.19097768E-03-8.21212936E-04
25  5-1.48971562E-03 7.46533146E-03 5.28884440E-03 2.17422766E-02 7.45196134E-02
25  6 1.36653575E-02 7.77931812E-02-1.03321464E-03 7.28608532E-04-1.83202143E-03
25  7 1.99375610E-04-1.51550905E-03 1.00334598E-03
26  1 5.33659185E-03 6.85008643E-04 1.68492788E-02 1.97611939E-03-8.26950540E-04
26  2-6.11922397E-04-1.63313175E-02-5.19014527E-02-4.68337727E-02-2.24256874E-04
26  3 2.78535771E-04-4.24783710E-04-2.61404424E-05-1.46932991E-03-1.04479436E-03
26  4 2.16452948E-04 7.20709472E-04 7.13268902E-04-9.47883384E-03-5.42139118E-03
26  5-3.17219893E-02 4.33256268E-03 1.77583476E-03 1.20726194E-02 1.36653575E-02
26  6 5.66620087E-02 5.07654542E-02 1.67371030E-03-4.94468889E-04 1.59859541E-03
26  7-1.14048144E-03-8.10596878E-06-1.36258357E-03
27  1-3.73824375E-03 3.19585398E-03-3.99413924E-03-8.20406622E-04-1.23878182E-03
27  2 9.82071181E-04-6.71815327E-02-4.70510022E-02-2.82350472E-01-4.01202345E-04
27  3 3.20167733E-04 2.48025393E-04-6.82501356E-05 4.71185903E-04 2.66601367E-04
27  4-1.36032404E-04-4.80204420E-04-2.94278021E-04 6.72934229E-05-5.51562322E-04
27  5-2.15131127E-03-5.67185339E-03-4.05592995E-03-1.67581362E-02 7.77931812E-02
27  6 5.07654542E-02 3.05176033E-01-8.46063936E-04 3.58802250E-04-4.01909311E-04
27  7 1.00406691E-03-1.73374048E-03-7.22456482E-04
28  1 2.11102619E-03-2.69812210E-03 3.46327046E-03-1.37204649E-03 4.20692111E-03
28  2-3.15772363E-04 2.85176039E-04 9.17377804E-05 3.15726397E-04-6.47195267E-04
28  3-8.10429215E-04-3.43573452E-04-7.18687339E-04-5.00634816E-04-8.88848457E-04
28  4-1.80808060E-04 7.68506200E-05 1.10215426E-03-7.48319046E-04-6.99651138E-05
28  5-4.56898303E-04-4.93820722E-04 3.11468857E-04 4.37158656E-04-1.03321464E-03
28  6 1.67371030E-03-8.46063936E-04 1.20377161E-01 4.04440518E-02 2.13066469E-01
28  7-1.17579088E-01-4.27258433E-02-2.15535019E-01
29  1-1.16231251E-03-3.32641651E-03 6.66465593E-04-1.10528283E-04-2.42720452E-05
29  2-1.33334614E-03 1.67437505E-03-1.48977851E-03-3.58679402E-04-3.98116421E-04
29  3-4.08470839E-04-4.10498211E-04 4.54285505E-04 4.06250432E-04 8.38175695E-04
29  4-1.02286230E-04 3.90493164E-04 8.18778877E-04-4.00179287E-05 3.35834921E-04
29  5 2.03595702E-04-4.98359016E-05 3.78910319E-05 2.46277195E-04 7.28608532E-04
29  6-4.94468889E-04 3.58802250E-04 4.04440518E-02 2.67181493E-02 8.00863815E-02
29  7-4.14382855E-02-2.21460088E-02-8.11170229E-02
30  1 3.14496783E-03-5.80103799E-03 6.18119459E-03-1.21128568E-04 7.83445017E-03
30  2-2.64712499E-03 9.33166212E-04-7.89350426E-04-2.19624705E-04 5.96481741E-04
30  3 9.81765953E-04 8.29264147E-05 1.37863220E-04-2.11542874E-04 8.30355165E-05
30  4 1.64146584E-05-5.96046198E-04-8.75879341E-04-7.84492113E-04 3.19620408E-04
30  5-3.87686292E-04-5.07048849E-05-9.50144767E-05-1.49349975E-04-1.83202143E-03
30  6 1.59859541E-03-4.01909311E-04 2.13066469E-01 8.00863815E-02 4.12998560E-01
30  7-2.15107076E-01-8.33285782E-02-4.14667223E-01
31  1-2.25844907E-03 1.02030059E-03-4.41100461E-03 4.55907567E-04-4.52626970E-03
31  2-8.77126631E-04-4.95739408E-04 1.10997001E-03-5.48038355E-04 5.25993127E-04
31  3 4.43295463E-04 2.43813496E-04 2.36777382E-04 1.27531990E-04 2.59850482E-04
31  4 9.56486028E-05 1.45891147E-04-3.46722330E-04 6.06456546E-04 3.26344992E-05
31  5 5.21499734E-04 2.88534277E-04-2.21428175E-04-3.81219667E-04 1.99375610E-04
31  6-1.14048144E-03 1.00406691E-03-1.17579088E-01-4.14382855E-02-2.15107076E-01
31  7 1.17924361E-01 4.44477162E-02 2.19641913E-01
32  1 7.10079935E-05-9.80168614E-04-2.87727666E-03-4.09734822E-04-1.06427074E-03
32  2-2.16154264E-04 2.11468482E-04-1.46854358E-03 7.43505803E-04 3.01845723E-04
32  3 2.86705382E-04 2.50182645E-04-2.10588378E-04-8.04714616E-05-3.60476514E-04
32  4 8.46493232E-05-1.11431515E-04-2.99431729E-04-2.22225796E-04-2.14062547E-04
32  5-1.05530398E-03-3.29187715E-05 1.91811171E-05-4.12131391E-04-1.51550905E-03
32  6-8.10596878E-06-1.73374048E-03-4.27258433E-02-2.21460088E-02-8.33285782E-02
32  7 4.44477162E-02 2.57682656E-02 8.92895486E-02
33  1-3.48442004E-03 6.11134321E-04-9.16332409E-03-8.09118035E-04-8.14105127E-03
33  2-6.67660168E-04-7.40576637E-04 5.05283568E-04 5.89019058E-04-1.99229117E-04
33  3-2.00623902E-04 2.68241172E-04-1.66397072E-04 8.42303486E-05-1.62270510E-04
33  4 8.68012630E-05 3.89831936E-04 4.53611623E-04 2.16028645E-04-1.68217717E-04
33  5-2.48708029E-04-1.34302684E-05 1.11581833E-04 1.78426121E-04 1.00334598E-03
33  6-1.36258357E-03-7.22456482E-04-2.15535019E-01-8.11170229E-02-4.14667223E-01
33  7 2.19641913E-01 8.92895486E-02 4.24143832E-01

$END

