 $CONTRL SCFTYP=RHF DFTTYP=B3LYP RUNTYP=HESSIAN MULT=1 $END
 $MASS AMASS(10)=2.0140 $END                               ! Atom number 10 is deuterium
 $SYSTEM TIMLIM=5000 MEMORY=8000000 $END
 $BASIS  GBASIS=N31 NGAUSS=6 ndfunc=1 npfunc=1 $END
 $STATPT HSSEND=.T. $END
 $FORCE NVIB=2 RDHESS=.t. $END                             ! To read hessian from $HESS
 $SCF DIIS=.T. SOSCF=.F. $END
 $DATA                                                     ! Paste geometry 
  CH3-CH2-CH2F 
 C1
C 6       -0.711221872      0.277839899      0.348288902
C 6       -0.758325941      1.615221820     -0.086741977
C 6        0.428228946     -0.643644949     -0.045866043
H 1       -1.672424776     -0.193165747      0.551359187
H 1       -1.688990474      2.170931464     -0.112633563
H 1        0.073633885      2.066583471     -0.618599515
H 1        0.236586931     -1.149783515     -1.000092039
H 1        1.367119099     -0.088854548     -0.145499081
H 1        0.586357670     -1.421243036      0.707634531
H 1       -0.398328604      1.047067623      1.408112918
F 9       -0.238116082      2.290424498      1.608324271 
 $END
 $HESS                                                     ! Paste hessian from *.dat
ENERGY IS     -218.2781406770 E(NUC) IS      124.8172913821
 1  1 5.54381429E-01 3.47239766E-02-1.13600577E-01-1.04471473E-01-9.24612567E-03
 1  2 1.36826516E-02-1.54878538E-01 5.51338907E-02 3.99333923E-02-2.67563313E-01
 1  3-1.01476412E-01 4.54307059E-02 4.73795413E-03 2.34808522E-02-7.24529665E-03
 1  4 4.46748647E-03-2.33857518E-02 8.87485691E-03 3.20775984E-03-2.39328791E-04
 1  5 2.16983618E-03-2.17948380E-02 1.89634752E-02 8.29956180E-03-1.97245187E-03
 1  6 1.01516922E-03 9.12479425E-04-2.92051847E-02 2.49157425E-02-2.85220929E-03
 1  7 1.30929414E-02-2.38871407E-02 4.39356399E-03
 2  1 3.47239766E-02 6.75111013E-01-4.95765637E-02 1.41900278E-02-3.38685835E-01
 2  2 1.08357181E-01 5.37312099E-02-1.30107861E-01-2.39133197E-02-1.06551098E-01
 2  3-1.05625528E-01 1.79767793E-02-2.24363074E-03-9.55619365E-03 6.06389855E-03
 2  4 1.29429804E-03-7.23102978E-03 4.28753065E-03 1.61375576E-02-1.34295960E-02
 2  5-4.96425184E-03-1.20964012E-02 1.13292909E-02 5.13983067E-03 1.96428445E-02
 2  6-1.54929354E-02-9.17991617E-03-8.01992167E-03-3.56587564E-02-2.38556330E-02
 2  7-1.08069496E-02-3.06575274E-02-3.03314726E-02
 3  1-1.13600577E-01-4.95765637E-02 1.58268606E-01 3.63472734E-03 9.30938656E-03
 3  2-9.83789652E-02 3.38897409E-02-1.51789260E-02-6.59365542E-02 5.34375485E-02
 3  3 2.31010396E-02-3.21141585E-02 2.75711250E-03-3.06945236E-03 9.56119103E-03
 3  4 8.14973181E-07 1.17433575E-02 6.63324445E-03 2.06892964E-02-1.56904853E-02
 3  5-2.20700386E-03 2.78493448E-03-2.33808921E-03-2.93665197E-03-1.49415164E-02
 3  6 9.57392902E-03 8.42674778E-03 6.71610999E-03 1.06612185E-01-3.19771400E-02
 3  7 4.63036291E-03-7.44903167E-02 5.06607309E-02
 4  1-1.04471473E-01 1.41900278E-02 3.63472734E-03 6.24716541E-01-7.70937439E-02
 4  2-1.36993233E-01 8.38494509E-04 2.48557062E-02-1.41636874E-02 4.53842570E-03
 4  3-2.71328452E-02 1.55083174E-02-2.76356685E-01 1.31087728E-01 7.49778724E-03
 4  4-2.32029419E-01-8.76339774E-02 1.12615666E-01-7.42794358E-04 4.62884616E-04
 4  5 3.65126856E-04 4.92673247E-04 9.16889483E-04-5.84766929E-04-4.60548856E-03
 4  6 4.68116242E-03 1.88555627E-03 4.78892355E-03 2.94076780E-02-1.37689586E-03
 4  7-1.71693468E-02-1.37430198E-02 1.16110300E-02
 5  1-9.24612567E-03-3.38685835E-01 9.30938656E-03-7.70937439E-02 5.42229143E-01
 5  2-2.21988773E-01 1.23500759E-02-1.98870912E-02 1.98260355E-02 4.64313793E-03
 5  3-1.07466437E-02 1.67707146E-02 1.31783228E-01-1.27892606E-01 1.43562213E-02
 5  4-8.68791276E-02-1.02330615E-01 6.88797122E-02-4.53657198E-03 3.46196938E-03
 5  5 2.36362918E-03-2.70326563E-03 1.43195702E-03 3.01983948E-05 2.41802480E-03
 5  6-1.86795455E-03-1.90882486E-03 1.74098889E-02 1.14741557E-01 3.69562564E-02
 5  7 1.18516998E-02-6.04542773E-02 5.54076517E-02
 6  1 1.36826516E-02 1.08357181E-01-9.83789652E-02-1.36993233E-01-2.21988773E-01
 6  2 2.40088529E-01-2.14233927E-04-8.01150671E-03 4.54291873E-03-2.30476081E-03
 6  3 6.02114906E-03-1.90952544E-03 3.23181629E-03 1.26296981E-02-3.72032856E-02
 6  4 1.15956948E-01 6.64219024E-02-1.04419270E-01 4.35603821E-04-1.17870797E-03
 6  5 8.83489215E-04-1.62295212E-04 2.82026516E-05 6.23888878E-04 5.31287452E-04
 6  6-2.93964951E-04 1.86353704E-04 2.00910962E-03 7.73985089E-02-1.18996443E-02
 6  7 3.82596668E-03-3.93864194E-02 7.48396548E-03
 7  1-1.54878538E-01 5.37312099E-02 3.38897409E-02 8.38494509E-04 1.23500759E-02
 7  2-2.14233927E-04 5.17750033E-01 4.18494999E-02 1.28790033E-02-1.67702458E-02
 7  3 1.75749114E-02 6.81596577E-03 1.26314386E-03-2.71563312E-04 2.77076345E-03
 7  4 5.26874271E-04-2.70179017E-03-1.31757136E-03-5.71518323E-02-2.50204820E-02
 7  5-4.49775724E-02-2.38442307E-01-1.17116404E-01 1.86537017E-02-5.30478776E-02
 7  6 2.43037656E-02-2.50290214E-02 2.85544259E-03-5.46847626E-04 1.31672292E-03
 7  7-2.94511127E-03-4.15224623E-03-4.78468740E-03
 8  1 5.51338907E-02-1.30107861E-01-1.51789260E-02 2.48557062E-02-1.98870912E-02
 8  2-8.01150671E-03 4.18494999E-02 5.43982698E-01-2.08689582E-02-1.07712640E-02
 8  3 1.08697809E-02 3.50454912E-03-3.54727299E-04-2.24497504E-03 9.20440002E-04
 8  4 8.36986537E-04 1.85194155E-03-5.54390188E-04-2.35248863E-02-9.93740156E-02
 8  5-9.99321464E-02-1.15507422E-01-1.19528370E-01 1.13812182E-02 2.36799078E-02
 8  6-1.78927326E-01 1.31852980E-01 5.42290229E-03-7.61716564E-03-1.57326615E-03
 8  7-1.61848245E-03 9.81530454E-04-1.54009667E-03
 9  1 3.99333923E-02-2.39133197E-02-6.59365542E-02-1.41636874E-02 1.98260355E-02
 9  2 4.54291873E-03 1.28790033E-02-2.08689582E-02 5.46495833E-01 1.77075259E-03
 9  3-3.00793713E-03-2.05485544E-03 6.94346619E-04 6.84680741E-03 2.95265915E-03
 9  4-1.45086671E-03-2.49714878E-03-2.68528927E-03-4.23548666E-02-1.00516117E-01
 9  5-2.44320402E-01 1.94721754E-02 1.23028131E-02-4.96767882E-02-2.50273791E-02
 9  6 1.30516120E-01-1.78054747E-01 1.31487163E-02-1.74987846E-02-2.76919571E-03
 9  7-4.90150147E-03-1.18966304E-03-8.49329332E-03
10  1-2.67563313E-01-1.06551098E-01 5.34375485E-02 4.53842570E-03 4.64313793E-03
10  2-2.30476081E-03-1.67702458E-02-1.07712640E-02 1.77075259E-03 2.83172555E-01
10  3 1.11459741E-01-5.39009433E-02 1.00197243E-03-5.14195269E-04-4.14882187E-04
10  4 1.15356601E-03 1.52708267E-03-5.45373435E-04 6.64925339E-04 6.71087526E-05
10  5 2.69615161E-04-2.28174217E-03 3.55166062E-03 1.36496167E-03 4.18535828E-04
10  6 1.61179912E-04-4.56996242E-04-4.78032414E-03-2.86592192E-03 1.99198548E-03
10  7 4.46738691E-04-7.07684716E-04-1.21287288E-03
11  1-1.01476412E-01-1.05625528E-01 2.31010396E-02-2.71328452E-02-1.07466437E-02
11  2 6.02114906E-03 1.75749114E-02 1.08697809E-02-3.00793713E-03 1.11459741E-01
11  3 1.13785826E-01-2.61344991E-02-7.32082280E-05 6.99288910E-04-8.65993687E-04
11  4 1.28174523E-03-3.05634614E-03 2.07048483E-03-7.06456292E-04 5.28931072E-04
11  5-1.36939004E-04 3.69961222E-03-2.32429098E-03-1.42068989E-03-7.35550297E-04
11  6 6.44221135E-04 5.55386225E-04-3.98990077E-03-3.47499032E-03 2.52527899E-03
11  7 9.75145017E-05-1.29997421E-03-2.70834054E-03
12  1 4.54307059E-02 1.79767793E-02-3.21141585E-02 1.55083174E-02 1.67707146E-02
12  2-1.90952544E-03 6.81596577E-03 3.50454912E-03-2.05485544E-03-5.39009433E-02
12  3-2.61344991E-02 3.97437467E-02-1.39568807E-03-2.77050992E-03-2.92702951E-03
12  4 1.43927282E-03 5.61506591E-03 3.34697395E-03-1.14521528E-04 4.29513686E-04
12  5-1.63679347E-04 9.29037026E-04-8.73303329E-04 5.04925084E-04-3.15886017E-04
12  6-7.54202367E-05 1.68831190E-04-1.44610150E-02-1.25507369E-02 4.46282107E-03
12  7 6.50221078E-05-1.89179216E-03-9.05798043E-03
13  1 4.73795413E-03-2.24363074E-03 2.75711250E-03-2.76356685E-01 1.31783228E-01
13  2 3.23181629E-03 1.26314386E-03-3.54727299E-04 6.94346619E-04 1.00197243E-03
13  3-7.32082280E-05-1.39568807E-03 2.82820688E-01-1.39527692E-01-8.06260004E-04
13  4-1.27927182E-02 1.21392304E-02-5.81592115E-04-1.54887309E-04 2.50645537E-04
13  5-2.55561741E-05 4.56897931E-04-2.38892654E-04-1.93805990E-05 3.31121715E-04
13  6-2.76163674E-05 8.89001977E-05-3.32767854E-04-1.44384650E-03 3.56540606E-04
13  7-9.74540423E-04-2.62500714E-04-4.29973833E-03
14  1 2.34808522E-02-9.55619365E-03-3.06945236E-03 1.31087728E-01-1.27892606E-01
14  2 1.26296981E-02-2.71563312E-04-2.24497504E-03 6.84680741E-03-5.14195269E-04
14  3 6.99288910E-04-2.77050992E-03-1.39527692E-01 1.30273006E-01-8.82665496E-03
14  4-1.19278042E-02 8.52364215E-03-3.14834876E-04-4.17859024E-04 4.12434879E-04
14  5-9.56388980E-05 2.24638019E-04 1.31779851E-04-7.28826119E-05 1.46102148E-03
14  6-1.21778740E-03-7.22069086E-04-5.29275746E-04-1.44223056E-03 4.67586894E-05
14  7-3.06438240E-03 2.31393357E-03-3.65268643E-03
15  1-7.24529665E-03 6.06389855E-03 9.56119103E-03 7.49778724E-03 1.43562213E-02
15  2-3.72032856E-02 2.77076345E-03 9.20440002E-04 2.95265915E-03-4.14882187E-04
15  3-8.65993687E-04-2.92702951E-03-8.06260004E-04-8.82665496E-03 3.75142165E-02
15  4 1.21229733E-02-7.91503291E-03 6.53471012E-03-5.49067554E-04 7.83781825E-04
15  5-4.06647140E-05 5.67932172E-05-1.22754631E-04-2.23860773E-04-5.40773784E-05
15  6-8.97611855E-05-7.23461894E-05-1.17995036E-03-7.85594255E-03-4.90426522E-04
15  7-1.21987842E-02 3.55189889E-03-1.56053131E-02
16  1 4.46748647E-03 1.29429804E-03 8.14973181E-07-2.32029419E-01-8.68791276E-02
16  2 1.15956948E-01 5.26874271E-04 8.36986537E-04-1.45086671E-03 1.15356601E-03
16  3 1.28174523E-03 1.43927282E-03-1.27927182E-02-1.19278042E-02 1.21229733E-02
16  4 2.35677643E-01 9.72156304E-02-1.20165007E-01 4.37476493E-04-2.47320808E-04
16  5-4.83184661E-05 2.26135893E-04-3.33290324E-04-1.69734805E-04-9.59730527E-05
16  6 7.31148802E-05 4.24225916E-05-3.76355787E-04-3.18255179E-03-3.96626565E-04
16  7 2.80473865E-03 1.86828525E-03-7.33247468E-03
17  1-2.33857518E-02-7.23102978E-03 1.17433575E-02-8.76339774E-02-1.02330615E-01
17  2 6.64219024E-02-2.70179017E-03 1.85194155E-03-2.49714878E-03 1.52708267E-03
17  3-3.05634614E-03 5.61506591E-03 1.21392304E-02 8.52364215E-03-7.91503291E-03
17  4 9.72156304E-02 1.02262373E-01-6.84040202E-02 4.16753725E-04-6.46820789E-04
17  5-2.62840347E-04 1.13264354E-03-1.96330855E-04 7.16663099E-05 1.75727643E-04
17  6 5.61977641E-04-6.33378463E-05 2.62076497E-04-1.67511816E-03-2.96257290E-05
17  7 8.51581511E-04 1.93709532E-03-4.68139001E-03
18  1 8.87485691E-03 4.28753065E-03 6.63324445E-03 1.12615666E-01 6.88797122E-02
18  2-1.04419270E-01-1.31757136E-03-5.54390188E-04-2.68528927E-03-5.45373435E-04
18  3 2.07048483E-03 3.34697395E-03-5.81592115E-04-3.14834876E-04 6.53471012E-03
18  4-1.20165007E-01-6.84040202E-02 1.09562953E-01 3.44982264E-04-5.31424691E-04
18  5-3.70036761E-04-6.03458004E-04 2.03126700E-04 2.40087756E-04-1.38295459E-04
18  6 8.61033563E-05 6.36455683E-05-1.66763428E-04-7.81289427E-03-9.04460546E-05
18  7 1.68338473E-03 2.09077867E-03-1.88155375E-02
19  1 3.20775984E-03 1.61375576E-02 2.06892964E-02-7.42794358E-04-4.53657198E-03
19  2 4.35603821E-04-5.71518323E-02-2.35248863E-02-4.23548666E-02 6.64925339E-04
19  3-7.06456292E-04-1.14521528E-04-1.54887309E-04-4.17859024E-04-5.49067554E-04
19  4 4.37476493E-04 4.16753725E-04 3.44982264E-04 6.06701501E-02 2.14742026E-02
19  5 4.71044200E-02-4.80664941E-03-1.10949463E-02-2.52994598E-02-1.42393333E-03
19  6-2.13534634E-03-2.82652333E-03-2.44905291E-03 2.17773293E-03-3.84682086E-04
19  7 1.74936310E-03 2.20964381E-03 2.95406761E-03
20  1-2.39328791E-04-1.34295960E-02-1.56904853E-02 4.62884616E-04 3.46196938E-03
20  2-1.17870797E-03-2.50204820E-02-9.93740156E-02-1.00516117E-01 6.71087526E-05
20  3 5.28931072E-04 4.29513686E-04 2.50645537E-04 4.12434879E-04 7.83781825E-04
20  4-2.47320808E-04-6.46820789E-04-5.31424691E-04 2.14742026E-02 1.07403130E-01
20  5 1.12180094E-01-2.82839683E-03-7.76982419E-03-1.51127411E-02 4.86632091E-03
20  6 1.17498880E-02 2.06422293E-02 2.56345810E-03-3.33678943E-04 9.21655595E-04
20  7-1.34827446E-03-2.00205102E-03-1.92945196E-03
21  1 2.16983618E-03-4.96425184E-03-2.20700386E-03 3.65126856E-04 2.36362918E-03
21  2 8.83489215E-04-4.49775724E-02-9.99321464E-02-2.44320402E-01 2.69615161E-04
21  3-1.36939004E-04-1.63679347E-04-2.55561741E-05-9.56388980E-05-4.06647140E-05
21  4-4.83184661E-05-2.62840347E-04-3.70036761E-04 4.71044200E-02 1.12180094E-01
21  5 2.63126079E-01 2.73845255E-04 2.42338695E-03 3.89010702E-03-5.48073516E-03
21  6-1.05447845E-02-2.02490448E-02 8.55803242E-04-2.37697455E-04 5.93914106E-04
21  7-5.05266537E-04-7.92743249E-04-1.14354263E-03
22  1-2.17948380E-02-1.20964012E-02 2.78493448E-03 4.92673247E-04-2.70326563E-03
22  2-1.62295212E-04-2.38442307E-01-1.15507422E-01 1.94721754E-02-2.28174217E-03
22  3 3.69961222E-03 9.29037026E-04 4.56897931E-04 2.24638019E-04 5.67932172E-05
22  4 2.26135893E-04 1.13264354E-03-6.03458004E-04-4.80664941E-03-2.82839683E-03
22  5 2.73845255E-04 2.60560569E-01 1.25107470E-01-2.31647561E-02 5.14210742E-03
22  6 2.67564451E-03-4.31126195E-05-2.95400586E-04-7.97361055E-04-2.55347940E-04
22  7 7.41411264E-04 1.09327714E-03 7.11808963E-04
23  1 1.89634752E-02 1.13292909E-02-2.33808921E-03 9.16889483E-04 1.43195702E-03
23  2 2.82026516E-05-1.17116404E-01-1.19528370E-01 1.23028131E-02 3.55166062E-03
23  3-2.32429098E-03-8.73303329E-04-2.38892654E-04 1.31779851E-04-1.22754631E-04
23  4-3.33290324E-04-1.96330855E-04 2.03126700E-04-1.10949463E-02-7.76982419E-03
23  5 2.42338695E-03 1.25107470E-01 1.27709783E-01-1.19669132E-02-1.95784415E-02
23  6-1.14655957E-02 1.79917467E-04 1.06358660E-04 6.53237091E-04 8.23340195E-05
23  7-2.85839086E-04 2.88171706E-05 8.09301394E-05
24  1 8.29956180E-03 5.13983067E-03-2.93665197E-03-5.84766929E-04 3.01983948E-05
24  2 6.23888878E-04 1.86537017E-02 1.13812182E-02-4.96767882E-02 1.36496167E-03
24  3-1.42068989E-03 5.04925084E-04-1.93805990E-05-7.28826119E-05-2.23860773E-04
24  4-1.69734805E-04 7.16663099E-05 2.40087756E-04-2.52994598E-02-1.51127411E-02
24  5 3.89010702E-03-2.31647561E-02-1.19669132E-02 4.88633753E-02 2.07108362E-02
24  6 1.11411979E-02-1.66630395E-03 7.49084980E-04 1.00445284E-03 1.67234142E-04
24  7-5.40113879E-04-1.95385699E-04 2.14254302E-04
25  1-1.97245187E-03 1.96428445E-02-1.49415164E-02-4.60548856E-03 2.41802480E-03
25  2 5.31287452E-04-5.30478776E-02 2.36799078E-02-2.50273791E-02 4.18535828E-04
25  3-7.35550297E-04-3.15886017E-04 3.31121715E-04 1.46102148E-03-5.40773784E-05
25  4-9.59730527E-05 1.75727643E-04-1.38295459E-04-1.42393333E-03 4.86632091E-03
25  5-5.48073516E-03 5.14210742E-03-1.95784415E-02 2.07108362E-02 5.48710311E-02
25  6-3.05230126E-02 2.55190376E-02 3.60540587E-04-2.32030313E-03-5.55445454E-04
25  7 2.25691222E-05 9.13575729E-04-2.47903371E-04
26  1 1.01516922E-03-1.54929354E-02 9.57392902E-03 4.68116242E-03-1.86795455E-03
26  2-2.93964951E-04 2.43037656E-02-1.78927326E-01 1.30516120E-01 1.61179912E-04
26  3 6.44221135E-04-7.54202367E-05-2.76163674E-05-1.21778740E-03-8.97611855E-05
26  4 7.31148802E-05 5.61977641E-04 8.61033563E-05-2.13534634E-03 1.17498880E-02
26  5-1.05447845E-02 2.67564451E-03-1.14655957E-02 1.11411979E-02-3.05230126E-02
26  6 1.94913697E-01-1.41655384E-01-2.70418175E-04 1.97116272E-03 1.16383788E-03
26  7 4.64976710E-05-8.69016143E-04 1.79184383E-04
27  1 9.12479425E-04-9.17991617E-03 8.42674778E-03 1.88555627E-03-1.90882486E-03
27  2 1.86353704E-04-2.50290214E-02 1.31852980E-01-1.78054747E-01-4.56996242E-04
27  3 5.55386225E-04 1.68831190E-04 8.89001977E-05-7.22069086E-04-7.23461894E-05
27  4 4.24225916E-05-6.33378463E-05 6.36455683E-05-2.82652333E-03 2.06422293E-02
27  5-2.02490448E-02-4.31126195E-05 1.79917467E-04-1.66630395E-03 2.55190376E-02
27  6-1.41655384E-01 1.90463474E-01-1.61228844E-04-5.15001091E-05 5.59332280E-04
27  7 6.80747376E-05 3.50939928E-04 1.74422046E-04
28  1-2.92051847E-02-8.01992167E-03 6.71610999E-03 4.78892355E-03 1.74098889E-02
28  2 2.00910962E-03 2.85544259E-03 5.42290229E-03 1.31487163E-02-4.78032414E-03
28  3-3.98990077E-03-1.44610150E-02-3.32767854E-04-5.29275746E-04-1.17995036E-03
28  4-3.76355787E-04 2.62076497E-04-1.66763428E-04-2.44905291E-03 2.56345810E-03
28  5 8.55803242E-04-2.95400586E-04 1.06358660E-04 7.49084980E-04 3.60540587E-04
28  6-2.70418175E-04-1.61228844E-04 4.57496393E-02-2.51675141E-02 3.22295331E-03
28  7-1.63152758E-02 1.22138238E-02-1.07315998E-02
29  1 2.49157425E-02-3.56587564E-02 1.06612185E-01 2.94076780E-02 1.14741557E-01
29  2 7.73985089E-02-5.46847626E-04-7.61716564E-03-1.74987846E-02-2.86592192E-03
29  3-3.47499032E-03-1.25507369E-02-1.44384650E-03-1.44223056E-03-7.85594255E-03
29  4-3.18255179E-03-1.67511816E-03-7.81289427E-03 2.17773293E-03-3.33678943E-04
29  5-2.37697455E-04-7.97361055E-04 6.53237091E-04 1.00445284E-03-2.32030313E-03
29  6 1.97116272E-03-5.15001091E-05-2.51675141E-02-7.96462126E-02-5.61928893E-02
29  7-2.01772614E-02 1.24896322E-02-8.28097389E-02
30  1-2.85220929E-03-2.38556330E-02-3.19771400E-02-1.37689586E-03 3.69562564E-02
30  2-1.18996443E-02 1.31672292E-03-1.57326615E-03-2.76919571E-03 1.99198548E-03
30  3 2.52527899E-03 4.46282107E-03 3.56540606E-04 4.67586894E-05-4.90426522E-04
30  4-3.96626565E-04-2.96257290E-05-9.04460546E-05-3.84682086E-04 9.21655595E-04
30  5 5.93914106E-04-2.55347940E-04 8.23340195E-05 1.67234142E-04-5.55445454E-04
30  6 1.16383788E-03 5.59332280E-04 3.22295331E-03-5.61928893E-02 7.24146442E-02
30  7-1.06705510E-03 3.99584936E-02-3.09696639E-02
31  1 1.30929414E-02-1.08069496E-02 4.63036291E-03-1.71693468E-02 1.18516998E-02
31  2 3.82596668E-03-2.94511127E-03-1.61848245E-03-4.90150147E-03 4.46738691E-04
31  3 9.75145017E-05 6.50221078E-05-9.74540423E-04-3.06438240E-03-1.21987842E-02
31  4 2.80473865E-03 8.51581511E-04 1.68338473E-03 1.74936310E-03-1.34827446E-03
31  5-5.05266537E-04 7.41411264E-04-2.85839086E-04-5.40113879E-04 2.25691222E-05
31  6 4.64976710E-05 6.80747376E-05-1.63152758E-02-2.01772614E-02-1.06705510E-03
31  7 1.85463328E-02 2.44543726E-02 8.93954832E-03
32  1-2.38871407E-02-3.06575274E-02-7.44903167E-02-1.37430198E-02-6.04542773E-02
32  2-3.93864194E-02-4.15224623E-03 9.81530454E-04-1.18966304E-03-7.07684716E-04
32  3-1.29997421E-03-1.89179216E-03-2.62500714E-04 2.31393357E-03 3.55189889E-03
32  4 1.86828525E-03 1.93709532E-03 2.09077867E-03 2.20964381E-03-2.00205102E-03
32  5-7.92743249E-04 1.09327714E-03 2.88171706E-05-1.95385699E-04 9.13575729E-04
32  6-8.69016143E-04 3.50939928E-04 1.22138238E-02 1.24896322E-02 3.99584936E-02
32  7 2.44543726E-02 7.75281228E-02 7.19879521E-02
33  1 4.39356399E-03-3.03314726E-02 5.06607309E-02 1.16110300E-02 5.54076517E-02
33  2 7.48396548E-03-4.78468740E-03-1.54009667E-03-8.49329332E-03-1.21287288E-03
33  3-2.70834054E-03-9.05798043E-03-4.29973833E-03-3.65268643E-03-1.56053131E-02
33  4-7.33247468E-03-4.68139001E-03-1.88155375E-02 2.95406761E-03-1.92945196E-03
33  5-1.14354263E-03 7.11808963E-04 8.09301394E-05 2.14254302E-04-2.47903371E-04
33  6 1.79184383E-04 1.74422046E-04-1.07315998E-02-8.28097389E-02-3.09696639E-02
33  7 8.93954832E-03 7.19879521E-02 2.55509391E-02
 
$END
 
