 $CONTRL SCFTYP=RHF DFTTYP=B3LYP RUNTYP=HESSIAN MULT=1 $END
 $SYSTEM TIMLIM=5000 MEMORY=2000000 $END
 $BASIS  GBASIS=N31 NGAUSS=6 ndfunc=1 npfunc=1 $END
 $STATPT HSSEND=.T. $END
 $FORCE NVIB=2 RDHESS=.f. $END
 $SCF DIIS=.T. SOSCF=.F. $END
 $DATA                                                     ! Paste geometry near TS
  CH3-CH2-CH2F hessian (near TS)
 C1
C 6       -0.741892961      0.286217750      0.243511673
C 6       -0.757566751      1.611736592     -0.094892746
C 6        0.424367359     -0.633831673     -0.045456702
H 1       -1.687811759     -0.181569952      0.512389910
H 1       -1.668077674      2.198384828     -0.059184752
H 1        0.100084669      2.091645243     -0.554752776
H 1        0.225016195     -1.276320782     -0.912191616
H 1        1.334293939     -0.063294464     -0.259071275
H 1        0.641380974     -1.295903025      0.800068892
H 1       -0.415128546      1.110914069      1.326609546
F 9       -0.230146664      2.123398393      1.657257435
$END
