 $CONTRL SCFTYP=RHF DFTTYP=B3LYP RUNTYP=optimize MULT=1 $END
 $SYSTEM TIMLIM=5000 MEMORY=2000000 $END
 $BASIS  GBASIS=N31 NGAUSS=6 ndfunc=1 npfunc=1 $END
 $STATPT NSTEP=150 HSSEND=.T. $END
 $FORCE NVIB=2 RDHESS=.f. TEMP(1)=0.001,298.15,1200,
 1300,1400,1500,1600 $END
 $SCF DIIS=.T. SOSCF=.F. $END
 $DATA
  C3H6 Optimization
 C1
C 6       -0.845000000      0.061000000     -0.001000000
C 6       -0.918000000      1.363999999     -0.274000000
C 6        0.426000000     -0.755000000     -0.006000000
H 1       -1.763999999     -0.469000000      0.244000000
H 1       -1.862999999      1.896999999     -0.254000000
H 1       -0.036000000      1.947999999     -0.526000000
H 1        0.234000000     -1.795999999     -0.277000000
H 1        1.155999999     -0.357000000     -0.720000000
H 1        0.906000000     -0.754000000      0.978000000
 $END
