 $CONTRL SCFTYP=RHF DFTTYP=B3LYP RUNTYP=HESSIAN MULT=1 $END
 $SYSTEM TIMLIM=5000 MEMORY=2000000 $END
 $BASIS  GBASIS=N31 NGAUSS=6 ndfunc=1 npfunc=1 $END
 $STATPT HSSEND=.T. $END
 $FORCE NVIB=2 RDHESS=.f. $END
 $SCF DIIS=.T. SOSCF=.F. $END
 $DATA                                                     ! Paste geometry near TS
  CH3-CH2-CH2F hessian (near TS)
 C1
C 6       -0.859305534      0.296470287      0.028044157
C 6       -1.076397141      1.316906538     -0.810126975
C 6        0.470597619     -0.350516730      0.283608136
H 1       -1.700230321     -0.097165219      0.599962646
H 1       -2.064934981      1.746169279     -0.943634189
H 1       -0.273936392      1.738620011     -1.411247125
H 1        0.410075102     -1.437334034      0.159292016
H 1        1.241384578      0.034272011     -0.390255482
H 1        0.785781960     -0.150243674      1.313308733
H 1       -0.372227782      2.038732485      1.255442918
F 9        0.054919989      2.205463396      2.070410370
$END
