! EXAMPLE 02.2

 $CONTRL SCFTYP=RHF MPLEVL=2 RUNTYP=HESSIAN MULT=1 UNITS=BOHR $END
 $SYSTEM TIMLIM=2880 MEMORY=20000000 $END
 $BASIS GBASIS=CC-PVDZ EXTFILE=.T. $END
 $GUESS GUESS=HUCKEL $END
 
 $MP2 METHOD=1 $END
 $DATA
 CO2 HESSIAN AT OPT
 C1
   C 6.0 0.0000002113 0.0000000000 0.0000000000
   O 8.0 -2.2224377635 0.0000000000 0.0000000000
   O 8.0 2.2224375523 0.0000000000 0.0000000000
 $END
