! EXAMPLE 02.2

 $CONTRL SCFTYP=RHF RUNTYP=HESSIAN MULT=1 UNITS=BOHR $END
 $SYSTEM TIMLIM=2880 MEMORY=20000000 $END
 $BASIS GBASIS=CC-PVDZ EXTFILE=.T. $END
 $GUESS GUESS=HUCKEL $END
 
 $DATA
 CO2 HESSIAN AT OPT
 C1
   C 6.0 -0.0000000030 0.0000000000 0.0000000000
   O 8.0 -2.1551468552 0.0000000000 0.0000000000
   O 8.0 2.1551468584 0.0000000000 0.0000000000
 $END
