! EXAMPLE 03.1
!
 $CONTRL SCFTYP=RHF RUNTYP=OPTIMIZE MULT=1 UNITS=BOHR $END
 
 $SYSTEM TIMLIM=2880 MEMORY=2000000 $END

 $STATPT METHOD=GDIIS UPHESS=BFGS OPTTOL=1e-5 HSSEND=.T. $END
 
 $BASIS GBASIS=STO NGAUSS=3 $END

 $SCF DIRSCF=.T. DIIS=.T. NCONV=8 ENGTHR=9 $END

 $FORCE TEMP(2)=200.0, 300.0 SCLFAC=1.0 $END

 $DATA
  CO2 GEOMETRY OPTIMIZATION
 C1
C 6.0   0.0 0.0 0.0
O 8.0 -1.25 0.0 0.0
O 8.0  1.25 0.0 0.0
 $END

