 $CONTRL SCFTYP=RHF DFTTYP=B3LYP RUNTYP=HESSIAN MULT=1 $END
 $SYSTEM TIMLIM=5000 MEMORY=2000000 $END
 $BASIS  GBASIS=N31 NGAUSS=6 ndfunc=1 npfunc=1 $END
 $STATPT HSSEND=.T. $END
 $FORCE NVIB=2 RDHESS=.f. $END
 $SCF DIIS=.T. SOSCF=.F. $END
 $DATA                                                     ! Paste geometry near TS
  CH3-CH2-CH2F hessian (near TS)
 C1
C 6       -0.711221872      0.277839899      0.348288902
C 6       -0.758325941      1.615221820     -0.086741977
C 6        0.428228946     -0.643644949     -0.045866043
H 1       -1.672424776     -0.193165747      0.551359187
H 1       -1.688990474      2.170931464     -0.112633563
H 1        0.073633885      2.066583471     -0.618599515
H 1        0.236586931     -1.149783515     -1.000092039
H 1        1.367119099     -0.088854548     -0.145499081
H 1        0.586357670     -1.421243036      0.707634531
H 1       -0.398328604      1.047067623      1.408112918
F 9       -0.238116082      2.290424498      1.608324271
$END
