! EXAMPLE 02.2

 $CONTRL SCFTYP=RHF RUNTYP=HESSIAN UNITS=BOHR $END
 $SYSTEM TIMLIM=2880 MEMORY=20000000 $END
 $BASIS GBASIS=STO NGAUSS=3 $END
 $GUESS GUESS=HUCKEL $END
 
 $DATA
   CO2 HESSIAN AT OPT
  C1
 C 6.0  0.0000000032 0.0000000000 0.0000000000
 O 8.0 -2.2448566570 0.0000000000 0.0000000000
 O 8.0  2.2448566538 0.0000000000 0.0000000000
 $END 
