 $CONTRL SCFTYP=RHF DFTTYP=B3LYP RUNTYP=sadpoint MULT=1 $END
 $SYSTEM TIMLIM=5000 MEMORY=2000000 $END
 $BASIS  GBASIS=N31 NGAUSS=6 ndfunc=1 npfunc=1 $END
 $STATPT HSSEND=.T. HESS=read ifolow=1 $END                ! ifolow = the mode along which the energy is maximazed (other mode are minimized)
 $FORCE NVIB=2 RDHESS=.f. $END
 $SCF DIIS=.T. SOSCF=.F. $END
 $DATA
  CH3-CH2-CH2F (near TS)
 C1  
C 6       -0.741892961      0.286217750      0.243511673
C 6       -0.757566751      1.611736592     -0.094892746
C 6        0.424367359     -0.633831673     -0.045456702
H 1       -1.687811759     -0.181569952      0.512389910
H 1       -1.668077674      2.198384828     -0.059184752
H 1        0.100084669      2.091645243     -0.554752776
H 1        0.225016195     -1.276320782     -0.912191616
H 1        1.334293939     -0.063294464     -0.259071275
H 1        0.641380974     -1.295903025      0.800068892
H 1       -0.415128546      1.110914069      1.326609546
F 9       -0.230146664      2.123398393      1.657257435
 $END
 $HESS
ENERGY IS     -218.2816488523 E(NUC) IS      126.8160560033
 1  1 5.45934263E-01 3.70238718E-02-1.11316842E-01-1.08120239E-01-4.40268420E-03
 1  2 1.96907881E-02-1.61991240E-01 5.67778593E-02 3.23512988E-02-2.61547859E-01
 1  3-9.82812861E-02 6.10534852E-02 4.62844228E-03 2.48869178E-02-6.29640931E-03
 1  4 3.00102535E-03-2.56949501E-02 6.25034758E-03 3.77811231E-03 1.67506146E-04
 1  5 2.36894799E-03-2.19297699E-02 1.82270184E-02 6.00278644E-03-3.32003422E-03
 1  6 2.93763375E-03 1.14931932E-03-1.09327521E-02 1.34504125E-02-4.40303728E-03
 1  7 1.05018334E-02-2.50916221E-02-6.85076522E-03
 2  1 3.70238718E-02 7.60802701E-01-5.64658702E-02 9.63865672E-03-4.27254197E-01
 2  2 1.13770582E-01 5.74805663E-02-1.31656437E-01-1.64610668E-02-1.04013618E-01
 2  3-1.05810602E-01 2.69266632E-02-3.00302409E-03-1.23642652E-02 4.39007021E-03
 2  4 4.83258782E-04-9.68832942E-03 2.58876431E-03 2.03463196E-02-1.61799429E-02
 2  5-4.01722129E-03-1.30132715E-02 1.15742009E-02 3.50997543E-03 1.77287333E-02
 2  6-1.48084529E-02-6.32105632E-03-1.15831723E-02-3.61401287E-02-3.28762717E-02
 2  7-1.10830895E-02-1.84770927E-02-3.50414131E-02
 3  1-1.11316842E-01-5.64658702E-02 1.76454918E-01 1.04210437E-02 4.71321065E-02
 3  2-8.82361606E-02 2.70668941E-02-7.55147955E-03-6.36661533E-02 6.70827710E-02
 3  3 2.93119507E-02-4.07576813E-02 1.37000769E-03-5.15367845E-03 5.96084260E-03
 3  4-1.24302122E-05 1.01430573E-02 4.70012976E-03 1.89078104E-02-1.34732257E-02
 3  5 2.54900950E-04 4.84631740E-03-4.47920214E-03-3.07063956E-03-1.77344996E-02
 3  6 1.16628282E-02 9.49312485E-03 5.55407250E-03 7.50642895E-02-1.80900242E-02
 3  7-6.18456583E-03-8.61891778E-02 1.69598599E-02
 4  1-1.08120239E-01 9.63865672E-03 1.04210437E-02 6.18568756E-01-6.08468854E-02
 4  2-1.30620429E-01 2.16918419E-03 2.66860952E-02-1.06209337E-02 3.83015369E-03
 4  3-2.81768071E-02 1.22197925E-02-2.66377450E-01 1.32881492E-01 2.27903312E-02
 4  4-2.42408974E-01-9.55517641E-02 9.92396289E-02-2.14440543E-03 1.49705163E-03
 4  5 4.99843677E-04 8.04266706E-04 1.02238892E-03-5.42105128E-04-4.54219153E-03
 4  6 4.54684566E-03 1.02968697E-03 6.03808337E-03 2.99045894E-02-1.00138237E-04
 4  7-7.81786391E-03-2.16019217E-02-4.31663340E-03
 5  1-4.40268420E-03-4.27254197E-01 4.71321065E-02-6.08468854E-02 6.70294797E-01
 5  2-1.98036107E-01 1.05992592E-02-1.93689391E-02 1.51208906E-02 4.13643048E-03
 5  3-1.18807032E-02 1.27020776E-02 1.34998799E-01-1.38182237E-01 1.26531864E-03
 5  4-9.72703800E-02-1.10324119E-01 6.06030584E-02-3.95863769E-03 2.82479589E-03
 5  5 2.23995801E-03-3.14529360E-03 1.67504157E-03 3.14589761E-04 1.07459866E-03
 5  6-1.15070934E-03-1.34384795E-03 1.74319794E-02 8.58004279E-02 3.95121394E-02
 5  7 1.38063384E-03-5.24313362E-02 2.04954151E-02
 6  1 1.96907881E-02 1.13770582E-01-8.82361606E-02-1.30620429E-01-1.98036107E-01
 6  2 2.37787160E-01 7.64453153E-04-5.51964429E-03 5.21482510E-03-1.57415003E-03
 6  3 8.11234548E-03 4.16789788E-04 1.73145573E-02 2.34298121E-03-3.60781517E-02
 6  4 1.04175083E-01 5.95168288E-02-8.45590107E-02-3.45265438E-04-6.71476454E-04
 6  5 6.01193989E-04-7.68117339E-04-1.67662644E-04 5.01075270E-04-4.58641581E-04
 6  6 1.31706286E-04 1.17004556E-04 4.05765946E-03 8.70511465E-02-8.30208569E-03
 6  7-1.22374894E-02-6.65303413E-02-2.74620268E-02
 7  1-1.61991240E-01 5.74805663E-02 2.70668941E-02 2.16918419E-03 1.05992592E-02
 7  2 7.64453153E-04 5.17350462E-01 4.26471553E-02 6.44790867E-03-1.66371590E-02
 7  3 1.70449785E-02 5.06762412E-03 1.54522273E-03-8.59484385E-04 3.28160359E-03
 7  4 5.80399340E-04-2.74277568E-03-1.72830278E-03-5.69638982E-02-3.29255242E-02
 7  5-4.21896934E-02-2.27083956E-01-1.16567286E-01 4.15253191E-02-5.77255430E-02
 7  6 2.73953420E-02-3.75024727E-02 1.46774457E-03 1.17731471E-03 1.83991127E-03
 7  7-2.71296666E-03-3.24912623E-03-4.57123339E-03
 8  1 5.67778593E-02-1.31656437E-01-7.55147955E-03 2.66860952E-02-1.93689391E-02
 8  2-5.51964429E-03 4.26471553E-02 5.40997658E-01-1.83932350E-02-1.11324073E-02
 8  3 1.07182893E-02 2.37597075E-03-4.23035872E-04-2.00441228E-03 1.36313192E-03
 8  4 1.02186175E-03 1.56224113E-03-1.08670486E-03-3.07095639E-02-1.31501686E-01
 8  5-1.17203902E-01-1.14631936E-01-1.23604810E-01 2.69975683E-02 2.76277729E-02
 8  6-1.39304831E-01 1.22659026E-01 4.17917734E-03-8.67147260E-03-1.46693575E-03
 8  7-2.04134427E-03 2.83350994E-03-2.17523270E-03
 9  1 3.23512988E-02-1.64610668E-02-6.36661533E-02-1.06209337E-02 1.51208906E-02
 9  2 5.21482510E-03 6.44790867E-03-1.83932350E-02 5.41955283E-01 3.77241508E-03
 9  3-4.50346942E-03-1.63681833E-03 1.87677962E-03 6.61115266E-03 6.99823317E-03
 9  4-2.13797682E-03-2.22522036E-03-4.68130616E-03-3.91504484E-02-1.17694645E-01
 9  5-2.10033382E-01 4.20868599E-02 2.77853735E-02-5.73147979E-02-3.82868253E-02
 9  6 1.22208795E-01-2.07736694E-01 7.63781400E-03-1.47384219E-02-1.87131828E-03
 9  7-3.97874980E-03 2.29081253E-03-7.23035052E-03
10  1-2.61547859E-01-1.04013618E-01 6.70827710E-02 3.83015369E-03 4.13643048E-03
10  2-1.57415003E-03-1.66371590E-02-1.11324073E-02 3.77241508E-03 2.76701613E-01
10  3 1.08947630E-01-6.99522988E-02 8.54729781E-04-6.01442987E-04-1.15175119E-03
10  4 1.68411811E-03 1.71883676E-03 6.33397302E-04 5.85595690E-04 1.41082198E-04
10  5 2.56560525E-04-2.42758174E-03 3.53671816E-03 9.39782971E-04 3.93390602E-04
10  6 9.40612851E-05-5.27876581E-04-3.91032819E-03-2.89750032E-03 2.17252138E-03
10  7 4.73428249E-04 7.03793165E-05-1.65198685E-03
11  1-9.82812861E-02-1.05810602E-01 2.93119507E-02-2.81768071E-02-1.18807032E-02
11  2 8.11234548E-03 1.70449785E-02 1.07182893E-02-4.50346942E-03 1.08947630E-01
11  3 1.13619887E-01-3.44333354E-02-2.23541808E-04 6.99291012E-04-1.12522633E-03
11  4 1.25911150E-03-3.54102351E-03 2.38217566E-03-7.88910050E-04 5.33949686E-04
11  5-1.80692004E-04 3.73476206E-03-2.30709289E-03-1.01362787E-03-7.23492846E-04
11  6 5.40768966E-04 5.35390887E-04-3.16875217E-03-1.96695464E-03 2.64765703E-03
11  7 3.75450031E-04-6.05069624E-04-1.73365293E-03
12  1 6.10534852E-02 2.69266632E-02-4.07576813E-02 1.22197925E-02 1.27020776E-02
12  2 4.16789788E-04 5.06762412E-03 2.37597075E-03-1.63681833E-03-6.99522988E-02
12  3-3.44333354E-02 4.43069860E-02-1.80797505E-03-2.48393096E-03-4.56837571E-03
12  4 2.11261972E-03 5.24120075E-03 6.36926922E-03-2.96228940E-04 4.13746117E-04
12  5-4.79129552E-05 7.89962451E-04-6.71143675E-04 8.70647106E-04 7.40231292E-06
12  6-2.87986288E-04 9.18114819E-05-9.43221165E-03-1.07251633E-02 2.65807874E-03
12  7 2.38409506E-04 9.41966673E-04-7.70271724E-03
13  1 4.62844228E-03-3.00302409E-03 1.37000769E-03-2.66377450E-01 1.34998799E-01
13  2 1.73145573E-02 1.54522273E-03-4.23035872E-04 1.87677962E-03 8.54729781E-04
13  3-2.23541808E-04-1.80797505E-03 2.73033874E-01-1.43661709E-01-1.58674413E-02
13  4-1.33056802E-02 1.29170839E-02 6.98563566E-04-2.73232775E-04 4.51383010E-04
13  5-8.47243101E-05 5.13309080E-04-2.15145419E-04-7.36071705E-05 5.24013597E-04
13  6-1.06405950E-04 5.47887291E-06-7.41053615E-04-7.51221121E-04 4.99929857E-04
13  7-4.00582654E-04 1.77649028E-05-3.92979755E-03
14  1 2.48869178E-02-1.23642652E-02-5.15367845E-03 1.32881492E-01-1.38182237E-01
14  2 2.34298121E-03-8.59484385E-04-2.00441228E-03 6.61115266E-03-6.01442987E-04
14  3 6.99291012E-04-2.48393096E-03-1.43661709E-01 1.41516956E-01 1.24691341E-03
14  4-1.21778716E-02 9.35034006E-03 1.01267124E-04-3.03758500E-04 2.32325053E-04
14  5-6.28147467E-05 1.14631044E-04 1.93106713E-04-6.39214069E-05 1.46006506E-03
14  6-1.33319726E-03-5.79038967E-04-1.71368220E-04 1.82599614E-04-5.15654219E-04
14  7-1.56688710E-03 1.70943229E-03-1.44520738E-03
15  1-6.29640931E-03 4.39007021E-03 5.96084260E-03 2.27903312E-02 1.26531864E-03
15  2-3.60781517E-02 3.28160359E-03 1.36313192E-03 6.99823317E-03-1.15175119E-03
15  3-1.12522633E-03-4.56837571E-03-1.58674413E-02 1.24691341E-03 3.75692826E-02
15  4 9.45729821E-03-7.42495052E-03 4.25158314E-03-1.07100597E-03 1.18967139E-03
15  5-1.36116634E-04 2.03059938E-05-1.08888432E-04-2.17043639E-04 6.06683814E-04
15  6-7.69257213E-04-3.67209630E-04-2.31531708E-03-4.30657482E-03-4.63926382E-04
15  7-9.45382242E-03 4.27954170E-03-1.29493173E-02
16  1 3.00102535E-03 4.83258782E-04-1.24302122E-05-2.42408974E-01-9.72703800E-02
16  2 1.04175083E-01 5.80399340E-04 1.02186175E-03-2.13797682E-03 1.68411811E-03
16  3 1.25911150E-03 2.11261972E-03-1.33056802E-02-1.21778716E-02 9.45729821E-03
16  4 2.47277711E-01 1.07016001E-01-1.07120034E-01 4.76822864E-04-2.30407971E-04
16  5-5.33962456E-05 3.64031450E-04-4.94044583E-04-7.85501917E-05-1.34644972E-04
16  6 1.69901781E-04 8.40459376E-05-1.11904388E-04-1.77831013E-03-7.96714646E-04
16  7 2.57566181E-03 2.00016135E-03-5.63171758E-03
17  1-2.56949501E-02-9.68832942E-03 1.01430573E-02-9.55517641E-02-1.10324119E-01
17  2 5.95168288E-02-2.74277568E-03 1.56224113E-03-2.22522036E-03 1.71883676E-03
17  3-3.54102351E-03 5.24120075E-03 1.29170839E-02 9.35034006E-03-7.42495052E-03
17  4 1.07016001E-01 1.11085710E-01-6.24562645E-02 3.60567340E-04-4.79706110E-04
17  5-4.80474835E-05 1.25719963E-03-9.65765594E-05-1.38142461E-04 1.64790364E-04
17  6 5.70465803E-04-7.63845830E-05-4.18106945E-05 1.13716967E-04-4.20715924E-04
17  7 5.95419153E-04 1.44700806E-03-2.11292846E-03
18  1 6.25034758E-03 2.58876431E-03 4.70012976E-03 9.92396289E-02 6.06030584E-02
18  2-8.45590107E-02-1.72830278E-03-1.08670486E-03-4.68130616E-03 6.33397302E-04
18  3 2.38217566E-03 6.36926922E-03 6.98563566E-04 1.01267124E-04 4.25158314E-03
18  4-1.07120034E-01-6.24562645E-02 9.07103011E-02 6.23628488E-04-9.66049919E-04
18  5-2.20948124E-04-4.63160308E-04 1.96838179E-04 2.84863376E-04-2.01456380E-04
18  6 4.50048848E-04 1.34702390E-04 1.18679276E-03-5.01930694E-03-6.68402304E-04
18  7 8.81659699E-04 3.20648643E-03-1.63200047E-02
19  1 3.77811231E-03 2.03463196E-02 1.89078104E-02-2.14440543E-03-3.95863769E-03
19  2-3.45265438E-04-5.69638982E-02-3.07095639E-02-3.91504484E-02 5.85595690E-04
19  3-7.88910050E-04-2.96228940E-04-2.73232775E-04-3.03758500E-04-1.07100597E-03
19  4 4.76822864E-04 3.60567340E-04 6.23628488E-04 6.08895408E-02 2.94125025E-02
19  5 4.47251031E-02-4.90563161E-03-1.42217927E-02-2.24219155E-02-1.63096682E-03
19  6-3.61311710E-03-3.89952299E-03-1.66600895E-03 2.43552691E-03-7.32286706E-04
19  7 1.85488959E-03 1.04048246E-03 3.66014395E-03
20  1 1.67506146E-04-1.61799429E-02-1.34732257E-02 1.49705163E-03 2.82479589E-03
20  2-6.71476454E-04-3.29255242E-02-1.31501686E-01-1.17694645E-01 1.41082198E-04
20  3 5.33949686E-04 4.13746117E-04 4.51383010E-04 2.32325053E-04 1.18967139E-03
20  4-2.30407971E-04-4.79706110E-04-9.66049919E-04 2.94125025E-02 1.43782972E-01
20  5 1.30119405E-01-2.95877571E-03-9.87311252E-03-1.38322300E-02 4.05667861E-03
20  6 1.23251897E-02 1.58923314E-02 1.71803342E-03-3.66625649E-04 1.29242272E-03
20  7-1.32932394E-03-1.29803752E-03-2.27079841E-03
21  1 2.36894799E-03-4.01722129E-03 2.54900950E-04 4.99843677E-04 2.23995801E-03
21  2 6.01193989E-04-4.21896934E-02-1.17203902E-01-2.10033382E-01 2.56560525E-04
21  3-1.80692004E-04-4.79129552E-05-8.47243101E-05-6.28147467E-05-1.36116634E-04
21  4-5.33962456E-05-4.80474835E-05-2.20948124E-04 4.47251031E-02 1.30119405E-01
21  5 2.25258906E-01 9.44581388E-04 4.97637821E-03 6.36813241E-03-6.37536657E-03
21  6-1.51096677E-02-2.12278928E-02 3.85178129E-04-4.46524977E-04 2.95152437E-04
21  7-4.76445120E-04-2.67594098E-04-1.11141927E-03
22  1-2.19297699E-02-1.30132715E-02 4.84631740E-03 8.04266706E-04-3.14529360E-03
22  2-7.68117339E-04-2.27083956E-01-1.14631936E-01 4.20868599E-02-2.42758174E-03
22  3 3.73476206E-03 7.89962451E-04 5.13309080E-04 1.14631044E-04 2.03059938E-05
22  4 3.64031450E-04 1.25719963E-03-4.63160308E-04-4.90563161E-03-2.95877571E-03
22  5 9.44581388E-04 2.48044819E-01 1.24426673E-01-4.77172554E-02 6.43001190E-03
22  6 3.69109715E-03-8.26820709E-04-6.33084383E-04-9.99166224E-05-2.57911752E-04
22  7 8.23728125E-04 6.24649907E-04 1.34522656E-03
23  1 1.82270184E-02 1.15742009E-02-4.47920214E-03 1.02238892E-03 1.67504157E-03
23  2-1.67662644E-04-1.16567286E-01-1.23604810E-01 2.77853735E-02 3.53671816E-03
23  3-2.30709289E-03-6.71143675E-04-2.15145419E-04 1.93106713E-04-1.08888432E-04
23  4-4.94044583E-04-9.65765594E-05 1.96838179E-04-1.42217927E-02-9.87311252E-03
23  5 4.97637821E-03 1.24426673E-01 1.32377662E-01-2.92368638E-02-1.57332356E-02
23  6-1.01694390E-02 1.85331025E-03 1.86697946E-04 2.07275529E-04-6.08513985E-05
23  7-1.69667799E-04 2.43348272E-05-8.73890966E-05
24  1 6.00278644E-03 3.50997543E-03-3.07063956E-03-5.42105128E-04 3.14589761E-04
24  2 5.01075270E-04 4.15253191E-02 2.69975683E-02-5.73147979E-02 9.39782971E-04
24  3-1.01362787E-03 8.70647106E-04-7.36071705E-05-6.39214069E-05-2.17043639E-04
24  4-7.85501917E-05-1.38142461E-04 2.84863376E-04-2.24219155E-02-1.38322300E-02
24  5 6.36813241E-03-4.77172554E-02-2.92368638E-02 5.66673249E-02 2.22351019E-02
24  6 1.30195592E-02-4.28849386E-03 7.67214155E-04 8.26793036E-04 2.47691466E-04
24  7-6.36375005E-04-3.83564405E-04-4.83790177E-05
25  1-3.32003422E-03 1.77287333E-02-1.77344996E-02-4.54219153E-03 1.07459866E-03
25  2-4.58641581E-04-5.77255430E-02 2.76277729E-02-3.82868253E-02 3.93390602E-04
25  3-7.23492846E-04 7.40231292E-06 5.24013597E-04 1.46006506E-03 6.06683814E-04
25  4-1.34644972E-04 1.64790364E-04-2.01456380E-04-1.63096682E-03 4.05667861E-03
25  5-6.37536657E-03 6.43001190E-03-1.57332356E-02 2.22351019E-02 5.97012345E-02
25  6-3.52820167E-02 4.04012329E-02-1.07881371E-04-1.53957891E-03-1.08168083E-03
25  7 4.12739304E-04 1.16578616E-03 8.87784074E-04
26  1 2.93763375E-03-1.48084529E-02 1.16628282E-02 4.54684566E-03-1.15070934E-03
26  2 1.31706286E-04 2.73953420E-02-1.39304831E-01 1.22208795E-01 9.40612851E-05
26  3 5.40768966E-04-2.87986288E-04-1.06405950E-04-1.33319726E-03-7.69257213E-04
26  4 1.69901781E-04 5.70465803E-04 4.50048848E-04-3.61311710E-03 1.23251897E-02
26  5-1.51096677E-02 3.69109715E-03-1.01694390E-02 1.30195592E-02-3.52820167E-02
26  6 1.52753905E-01-1.32676674E-01 5.26372368E-04 1.80079004E-03 1.74684594E-03
26  7-3.60098868E-04-1.22420555E-03-3.75768849E-04
27  1 1.14931932E-03-6.32105632E-03 9.49312485E-03 1.02968697E-03-1.34384795E-03
27  2 1.17004556E-04-3.75024727E-02 1.22659026E-01-2.07736694E-01-5.27876581E-04
27  3 5.35390887E-04 9.18114819E-05 5.47887291E-06-5.79038967E-04-3.67209630E-04
27  4 8.40459376E-05-7.63845830E-05 1.34702390E-04-3.89952299E-03 1.58923314E-02
27  5-2.12278928E-02-8.26820709E-04 1.85331025E-03-4.28849386E-03 4.04012329E-02
27  6-1.32676674E-01 2.23365660E-01 5.30061849E-05-5.15637457E-04 2.91442876E-04
27  7 3.43042554E-05 5.72247542E-04 1.27427420E-04
28  1-1.09327521E-02-1.15831723E-02 5.55407250E-03 6.03808337E-03 1.74319794E-02
28  2 4.05765946E-03 1.46774457E-03 4.17917734E-03 7.63781400E-03-3.91032819E-03
28  3-3.16875217E-03-9.43221165E-03-7.41053615E-04-1.71368220E-04-2.31531708E-03
28  4-1.11904388E-04-4.18106945E-05 1.18679276E-03-1.66600895E-03 1.71803342E-03
28  5 3.85178129E-04-6.33084383E-04 1.86697946E-04 7.67214155E-04-1.07881371E-04
28  6 5.26372368E-04 5.30061849E-05 3.28421966E-02-8.23837580E-03 4.96106391E-03
28  7-2.22454589E-02-8.38379575E-04-1.28556751E-02
29  1 1.34504125E-02-3.61401287E-02 7.50642895E-02 2.99045894E-02 8.58004279E-02
29  2 8.70511465E-02 1.17731471E-03-8.67147260E-03-1.47384219E-02-2.89750032E-03
29  3-1.96695464E-03-1.07251633E-02-7.51221121E-04 1.82599614E-04-4.30657482E-03
29  4-1.77831013E-03 1.13716967E-04-5.01930694E-03 2.43552691E-03-3.66625649E-04
29  5-4.46524977E-04-9.99166224E-05 2.07275529E-04 8.26793036E-04-1.53957891E-03
29  6 1.80079004E-03-5.15637457E-04-8.23837580E-03 4.18632059E-02-3.27951706E-02
29  7-3.16664711E-02-8.28197291E-02-9.43963832E-02
30  1-4.40303728E-03-3.28762717E-02-1.80900242E-02-1.00138237E-04 3.95121394E-02
30  2-8.30208569E-03 1.83991127E-03-1.46693575E-03-1.87131828E-03 2.17252138E-03
30  3 2.64765703E-03 2.65807874E-03 4.99929857E-04-5.15654219E-04-4.63926382E-04
30  4-7.96714646E-04-4.20715924E-04-6.68402304E-04-7.32286706E-04 1.29242272E-03
30  5 2.95152437E-04-2.57911752E-04-6.08513985E-05 2.47691466E-04-1.08168083E-03
30  6 1.74684594E-03 2.91442876E-04 4.96106391E-03-3.27951706E-02 5.97352872E-02
30  7-2.10318993E-03 2.29364559E-02-3.38326588E-02
31  1 1.05018334E-02-1.10830895E-02-6.18456583E-03-7.81786391E-03 1.38063384E-03
31  2-1.22374894E-02-2.71296666E-03-2.04134427E-03-3.97874980E-03 4.73428249E-04
31  3 3.75450031E-04 2.38409506E-04-4.00582654E-04-1.56688710E-03-9.45382242E-03
31  4 2.57566181E-03 5.95419153E-04 8.81659699E-04 1.85488959E-03-1.32932394E-03
31  5-4.76445120E-04 8.23728125E-04-1.69667799E-04-6.36375005E-04 4.12739304E-04
31  6-3.60098868E-04 3.43042554E-05-2.22454589E-02-3.16664711E-02-2.10318993E-03
31  7 1.65343367E-02 4.58641686E-02 3.39155297E-02
32  1-2.50916221E-02-1.84770927E-02-8.61891778E-02-2.16019217E-02-5.24313362E-02
32  2-6.65303413E-02-3.24912623E-03 2.83350994E-03 2.29081253E-03 7.03793165E-05
32  3-6.05069624E-04 9.41966673E-04 1.77649028E-05 1.70943229E-03 4.27954170E-03
32  4 2.00016135E-03 1.44700806E-03 3.20648643E-03 1.04048246E-03-1.29803752E-03
32  5-2.67594098E-04 6.24649907E-04 2.43348272E-05-3.83564405E-04 1.16578616E-03
32  6-1.22420555E-03 5.72247542E-04-8.38379575E-04-8.28197291E-02 2.29364559E-02
32  7 4.58641686E-02 1.50837296E-01 1.19141309E-01
33  1-6.85076522E-03-3.50414131E-02 1.69598599E-02-4.31663340E-03 2.04954151E-02
33  2-2.74620268E-02-4.57123339E-03-2.17523270E-03-7.23035052E-03-1.65198685E-03
33  3-1.73365293E-03-7.70271724E-03-3.92979755E-03-1.44520738E-03-1.29493173E-02
33  4-5.63171758E-03-2.11292846E-03-1.63200047E-02 3.66014395E-03-2.27079841E-03
33  5-1.11141927E-03 1.34522656E-03-8.73890966E-05-4.83790177E-05 8.87784074E-04
33  6-3.75768849E-04 1.27427420E-04-1.28556751E-02-9.43963832E-02-3.38326588E-02
33  7 3.39155297E-02 1.19141309E-01 8.95661667E-02
 $END
